data;

param w := 18;
param n := 16;
param min_h := 18;
param max_h := 29;

set BLOCKS := 1 2 3 4 5 6 7 8 9 10 11 12 13 14 15 16 ;

param:	width	height :=
	1	3	11
	2	3	10
	3	5	6
	4	5	5
	5	3	8
	6	4	6
	7	3	7
	8	4	5
	9	5	4
	10	3	6
	11	4	4
	12	5	3
	13	3	5
	14	4	3
	15	3	4
	16	3	3;